<?xml version="1.0" encoding="UTF-8"?><osil xmlns="os.optimizationservices.org"   xmlns:xsi="http://www.w3.org/2001/XMLSchema-instance" xsi:schemaLocation="os.optimizationservices.org http://www.optimizationservices.org/schemas/2.0/OSiL.xsd" ><instanceHeader><name>q_20_0_50_5</name></instanceHeader><instanceData><variables numberOfVariables="20"><var name="x1" ub="1"/><var name="x2" ub="1"/><var name="x3" ub="1"/><var name="x4" ub="1"/><var name="x5" ub="1"/><var name="x6" ub="1"/><var name="x7" ub="1"/><var name="x8" ub="1"/><var name="x9" ub="1"/><var name="x10" ub="1"/><var name="x11" ub="1"/><var name="x12" ub="1"/><var name="x13" ub="1"/><var name="x14" ub="1"/><var name="x15" ub="1"/><var name="x16" ub="1"/><var name="x17" ub="1"/><var name="x18" ub="1"/><var name="x19" ub="1"/><var name="x20" ub="1"/></variables><objectives numberOfObjectives="1"><obj maxOrMin="min" name="defObj_x21" numberOfObjCoef="20"><coef idx="0">.5847</coef><coef idx="1">.7055</coef><coef idx="2">.325</coef><coef idx="3">.2792</coef><coef idx="4">9.1e-3</coef><coef idx="5">-.8959</coef><coef idx="6">-.2254</coef><coef idx="7">.718</coef><coef idx="8">.7289</coef><coef idx="9">8.95e-2</coef><coef idx="10">-.3158</coef><coef idx="11">-.6424</coef><coef idx="12">-.4076</coef><coef idx="13">-.7606</coef><coef idx="14">-.4835</coef><coef idx="15">.7128</coef><coef idx="16">-.7993</coef><coef idx="17">.1586</coef><coef idx="18">-.2892</coef><coef idx="19">-.297</coef></obj></objectives><quadraticCoefficients  numberOfQuadraticTerms="105" ><qTerm  idx="-1"  idxOne="0"  idxTwo="9"  coef="-.7422"/><qTerm  idx="-1"  idxOne="0"  idxTwo="17"  coef="1.9849"/><qTerm  idx="-1"  idxOne="0"  idxTwo="18"  coef=".8711"/><qTerm  idx="-1"  idxOne="1"  idxTwo="4"  coef="-1.3885"/><qTerm  idx="-1"  idxOne="1"  idxTwo="5"  coef="1.5228"/><qTerm  idx="-1"  idxOne="1"  idxTwo="10"  coef=".8083"/><qTerm  idx="-1"  idxOne="1"  idxTwo="11"  coef="-7.64e-2"/><qTerm  idx="-1"  idxOne="1"  idxTwo="12"  coef="1.043"/><qTerm  idx="-1"  idxOne="1"  idxTwo="13"  coef="-1.8571"/><qTerm  idx="-1"  idxOne="1"  idxTwo="14"  coef="-1.154"/><qTerm  idx="-1"  idxOne="1"  idxTwo="16"  coef="-.5252"/><qTerm  idx="-1"  idxOne="2"  idxTwo="2"  coef="-.7475"/><qTerm  idx="-1"  idxOne="2"  idxTwo="3"  coef="-.5181"/><qTerm  idx="-1"  idxOne="2"  idxTwo="4"  coef="-.7919"/><qTerm  idx="-1"  idxOne="2"  idxTwo="6"  coef="1.6899"/><qTerm  idx="-1"  idxOne="2"  idxTwo="7"  coef=".1115"/><qTerm  idx="-1"  idxOne="2"  idxTwo="9"  coef="1.6501"/><qTerm  idx="-1"  idxOne="2"  idxTwo="10"  coef="-1.42e-2"/><qTerm  idx="-1"  idxOne="2"  idxTwo="13"  coef="-1.4049"/><qTerm  idx="-1"  idxOne="2"  idxTwo="18"  coef=".599"/><qTerm  idx="-1"  idxOne="3"  idxTwo="4"  coef="1.3816"/><qTerm  idx="-1"  idxOne="3"  idxTwo="7"  coef=".6182"/><qTerm  idx="-1"  idxOne="3"  idxTwo="8"  coef="-1.0346"/><qTerm  idx="-1"  idxOne="3"  idxTwo="9"  coef="1.8408"/><qTerm  idx="-1"  idxOne="3"  idxTwo="10"  coef="-1.3459"/><qTerm  idx="-1"  idxOne="3"  idxTwo="13"  coef="1.7085"/><qTerm  idx="-1"  idxOne="3"  idxTwo="14"  coef="-1.5253"/><qTerm  idx="-1"  idxOne="3"  idxTwo="15"  coef="-.4793"/><qTerm  idx="-1"  idxOne="3"  idxTwo="19"  coef="1.2459"/><qTerm  idx="-1"  idxOne="4"  idxTwo="4"  coef=".2978"/><qTerm  idx="-1"  idxOne="4"  idxTwo="5"  coef="1.1316"/><qTerm  idx="-1"  idxOne="4"  idxTwo="6"  coef=".9773"/><qTerm  idx="-1"  idxOne="4"  idxTwo="7"  coef="-1.1775"/><qTerm  idx="-1"  idxOne="4"  idxTwo="9"  coef="-.54"/><qTerm  idx="-1"  idxOne="4"  idxTwo="11"  coef="-1.85"/><qTerm  idx="-1"  idxOne="4"  idxTwo="12"  coef="-1.4322"/><qTerm  idx="-1"  idxOne="4"  idxTwo="13"  coef="-.5904"/><qTerm  idx="-1"  idxOne="4"  idxTwo="15"  coef="-.2378"/><qTerm  idx="-1"  idxOne="4"  idxTwo="16"  coef=".3796"/><qTerm  idx="-1"  idxOne="4"  idxTwo="17"  coef="-.545"/><qTerm  idx="-1"  idxOne="4"  idxTwo="18"  coef=".4699"/><qTerm  idx="-1"  idxOne="4"  idxTwo="19"  coef="-1.2903"/><qTerm  idx="-1"  idxOne="5"  idxTwo="5"  coef="1.6844"/><qTerm  idx="-1"  idxOne="5"  idxTwo="10"  coef="-1.1134"/><qTerm  idx="-1"  idxOne="5"  idxTwo="12"  coef="-.9326"/><qTerm  idx="-1"  idxOne="5"  idxTwo="13"  coef="-1.939"/><qTerm  idx="-1"  idxOne="5"  idxTwo="14"  coef="-1.7856"/><qTerm  idx="-1"  idxOne="5"  idxTwo="16"  coef="-1.8206"/><qTerm  idx="-1"  idxOne="5"  idxTwo="17"  coef=".6431"/><qTerm  idx="-1"  idxOne="6"  idxTwo="6"  coef="-.1673"/><qTerm  idx="-1"  idxOne="6"  idxTwo="8"  coef="-.721"/><qTerm  idx="-1"  idxOne="6"  idxTwo="9"  coef="-.1608"/><qTerm  idx="-1"  idxOne="6"  idxTwo="11"  coef="-.488"/><qTerm  idx="-1"  idxOne="6"  idxTwo="13"  coef=".2375"/><qTerm  idx="-1"  idxOne="6"  idxTwo="14"  coef=".4367"/><qTerm  idx="-1"  idxOne="6"  idxTwo="15"  coef=".3576"/><qTerm  idx="-1"  idxOne="6"  idxTwo="16"  coef="-.4902"/><qTerm  idx="-1"  idxOne="6"  idxTwo="17"  coef="-1.5208"/><qTerm  idx="-1"  idxOne="7"  idxTwo="8"  coef="-1.1186"/><qTerm  idx="-1"  idxOne="7"  idxTwo="11"  coef="-1.5632"/><qTerm  idx="-1"  idxOne="7"  idxTwo="12"  coef=".4572"/><qTerm  idx="-1"  idxOne="7"  idxTwo="15"  coef="-.1045"/><qTerm  idx="-1"  idxOne="7"  idxTwo="16"  coef="-.9231"/><qTerm  idx="-1"  idxOne="7"  idxTwo="17"  coef=".2244"/><qTerm  idx="-1"  idxOne="7"  idxTwo="19"  coef="-1.0086"/><qTerm  idx="-1"  idxOne="8"  idxTwo="10"  coef="-.6935"/><qTerm  idx="-1"  idxOne="8"  idxTwo="12"  coef=".2865"/><qTerm  idx="-1"  idxOne="8"  idxTwo="15"  coef=".118"/><qTerm  idx="-1"  idxOne="8"  idxTwo="16"  coef="1.6268"/><qTerm  idx="-1"  idxOne="8"  idxTwo="17"  coef=".4161"/><qTerm  idx="-1"  idxOne="8"  idxTwo="18"  coef="1.2755"/><qTerm  idx="-1"  idxOne="8"  idxTwo="19"  coef="-.7825"/><qTerm  idx="-1"  idxOne="9"  idxTwo="9"  coef="1.7584"/><qTerm  idx="-1"  idxOne="9"  idxTwo="12"  coef="-.5534"/><qTerm  idx="-1"  idxOne="9"  idxTwo="16"  coef="-1.5802"/><qTerm  idx="-1"  idxOne="9"  idxTwo="17"  coef="-1.5679"/><qTerm  idx="-1"  idxOne="9"  idxTwo="18"  coef=".6252"/><qTerm  idx="-1"  idxOne="10"  idxTwo="11"  coef="-1.1859"/><qTerm  idx="-1"  idxOne="10"  idxTwo="12"  coef="-1.2781"/><qTerm  idx="-1"  idxOne="10"  idxTwo="13"  coef="-1.3868"/><qTerm  idx="-1"  idxOne="10"  idxTwo="15"  coef="-.77"/><qTerm  idx="-1"  idxOne="10"  idxTwo="17"  coef="-1.7401"/><qTerm  idx="-1"  idxOne="10"  idxTwo="19"  coef="1.2354"/><qTerm  idx="-1"  idxOne="11"  idxTwo="11"  coef="1.6073"/><qTerm  idx="-1"  idxOne="11"  idxTwo="13"  coef="-1.4234"/><qTerm  idx="-1"  idxOne="11"  idxTwo="14"  coef=".7328"/><qTerm  idx="-1"  idxOne="12"  idxTwo="13"  coef="-.4724"/><qTerm  idx="-1"  idxOne="12"  idxTwo="14"  coef=".2158"/><qTerm  idx="-1"  idxOne="12"  idxTwo="17"  coef="-.4855"/><qTerm  idx="-1"  idxOne="13"  idxTwo="14"  coef="-1.7758"/><qTerm  idx="-1"  idxOne="13"  idxTwo="15"  coef=".6846"/><qTerm  idx="-1"  idxOne="13"  idxTwo="16"  coef="-.28"/><qTerm  idx="-1"  idxOne="13"  idxTwo="17"  coef="-.6024"/><qTerm  idx="-1"  idxOne="13"  idxTwo="18"  coef="-.6982"/><qTerm  idx="-1"  idxOne="14"  idxTwo="15"  coef="1.4336"/><qTerm  idx="-1"  idxOne="14"  idxTwo="16"  coef=".5297"/><qTerm  idx="-1"  idxOne="14"  idxTwo="18"  coef="-4.72e-2"/><qTerm  idx="-1"  idxOne="15"  idxTwo="15"  coef="-1.0082"/><qTerm  idx="-1"  idxOne="15"  idxTwo="16"  coef="1.3278"/><qTerm  idx="-1"  idxOne="15"  idxTwo="17"  coef="-1.5964"/><qTerm  idx="-1"  idxOne="16"  idxTwo="18"  coef=".7941"/><qTerm  idx="-1"  idxOne="16"  idxTwo="19"  coef="-.5208"/><qTerm  idx="-1"  idxOne="17"  idxTwo="18"  coef=".3074"/><qTerm  idx="-1"  idxOne="17"  idxTwo="19"  coef="-.5133"/><qTerm  idx="-1"  idxOne="19"  idxTwo="19"  coef="1.4015"/></quadraticCoefficients></instanceData></osil>
